NAME : n100w80.002.668.tour
COMMENT : Length = 668
COMMENT : Found by LKH [Keld Helsgaun] Tue May  2 05:19:08 2017
TYPE : TOUR
DIMENSION : 101
TOUR_SECTION
1
40
59
70
54
85
51
2
32
14
12
58
73
18
87
31
36
45
11
92
83
88
46
33
28
53
37
29
89
27
17
97
38
90
84
64
8
44
94
7
48
24
49
34
82
26
47
22
41
72
96
68
30
63
15
69
75
10
55
13
56
80
61
66
100
76
74
60
20
79
43
21
95
42
91
93
98
23
81
62
16
67
50
19
39
78
6
86
35
4
52
99
65
25
3
57
71
101
5
77
9
-1
EOF
